
(set-logic ALL) 

(declare-datatype MyList ((Nil) (Cons (head Real) (tail MyList)) )) 
(declare-fun l0 () MyList) 
(declare-fun l1 () MyList) 
(declare-fun l2 () MyList) 
(declare-fun l3 () MyList) 
(declare-fun i0 () Real) 
(declare-fun i1 () Real) 
(assert (and (= l1 Nil) (= l2 Nil)) )
(assert (or (= l3 l2) (= l2 Nil)) )
(assert (and (= l2 l3) (= l0 Nil) (= l0 Nil) (= l3 Nil)) )
(assert (not (= l0 Nil)) )
(assert (= l1 l1) )
(assert (not (= l3 Nil)) )
(assert (is-Cons Nil) )
(assert (not (is-Nil Nil)) )
(check-sat)
